c
c The Problem describing the plan needed for the murder mystery story
c Murderer = [0, ..., NUM_CHARACTERS]. Murderer = character index
c Murderer = [0, ..., NUM_CHARACTERS]. Murderer = character index
p cnf [Num vars] [Num Clauses]
